
Gurobi 11.0.1 (linux64, Java) logging started Fr 29 Mär 2024 19:52:45


Gurobi 11.0.1 (linux64, Java) logging started Fr 29 Mär 2024 19:54:13


Gurobi 11.0.1 (linux64, Java) logging started Fr 29 Mär 2024 19:54:32


Gurobi 11.0.1 (linux64, Java) logging started Fr 29 Mär 2024 20:02:23


Gurobi 11.0.1 (linux64, Java) logging started Fr 29 Mär 2024 20:37:57


Gurobi 11.0.1 (linux64, Java) logging started Fr 29 Mär 2024 21:09:56


Gurobi 11.0.1 (linux64, Java) logging started Fr 29 Mär 2024 21:10:00


Gurobi 11.0.1 (linux64, Java) logging started Fr 29 Mär 2024 21:10:05


Gurobi 11.0.1 (linux64, Java) logging started Fr 29 Mär 2024 21:13:49


Gurobi 11.0.1 (linux64, Java) logging started Fr 29 Mär 2024 21:25:32


Gurobi 11.0.1 (linux64, Java) logging started Fr 29 Mär 2024 21:25:36


Gurobi 11.0.1 (linux64, Java) logging started Fr 29 Mär 2024 21:25:40


Gurobi 11.0.1 (linux64, Java) logging started Fr 29 Mär 2024 22:57:35


Gurobi 11.0.1 (linux64, Java) logging started Sa 30 Mär 2024 19:21:44

